benchmark_str_length/p1_10_9-1.dzn
Alphabet = {A,C,G,T};
ns = 10;
nc = 9;
sl = 10;
neighbours = [| I(A),I(A),I(C),I(A),I(A),I(C),I(A),I(A),I(A) | I(A),I(A),I(A),I(A),I(C),I(A),I(A),I(G),I(C) | I(A),I(A),I(C),I(A),I(A),I(A),I(C),I(C),I(A) | I(C),I(A),I(A),I(G),I(A),I(A),I(A),I(A),I(A) | I(C),I(A),I(A),I(A),I(A),I(C),I(A),I(A),I(A) | I(A),I(A),I(C),I(C),I(A),I(A),I(A),I(A),I(A) | I(C),I(A),I(A),I(A),I(C),I(A),I(A),I(G),I(A) | I(A),I(A),I(A),I(C),I(A),I(A),I(A),I(C),I(A) | I(G),I(A),I(A),I(G),I(A),I(G),I(A),I(A),I(A) | I(C),I(A),I(A),I(C),I(A),I(C),I(A),I(A),I(A) |];
