benchmark_str_length/p1_10_9-1.txt
{
	"num_strings": 10,
	"alphabet": "ACGT",
	"strings": [
		"AACAACAAA",
		"AAAACAAGC",
		"AACAAACCA",
		"CAAGAAAAA",
		"CAAAACAAA",
		"AACCAAAAA",
		"CAAACAAGA",
		"AAACAAACA",
		"GAAGAGAAA",
		"CAACACAAA"
	],
	"str_length":[9,9,9,9,9,9,9,9,9,9]
}